; benchmark generated from python API
(set-info :status unknown)
(declare-fun rdi () (_ BitVec 32))
(declare-fun R () (_ BitVec 32))
(assert
 (let ((?x6 ((_ extract 31 0) rdi)))
 (let ((?x32 ((_ extract 31 31) rdi)))
 (let ((?x49 (concat (concat (concat (concat (concat ?x32 ?x32) ?x32) ?x32) ?x32) ?x32)))
 (let ((?x63 (concat (concat (concat (concat (concat ?x49 ?x32) ?x32) ?x32) ?x32) ?x32)))
 (let ((?x81 (concat (concat (concat (concat (concat ?x63 ?x32) ?x32) ?x32) ?x32) ?x32)))
 (let ((?x87 (concat (concat (concat (concat (concat ?x81 ?x32) ?x32) ?x32) ?x32) ?x32)))
 (let ((?x89 (concat (concat (concat (concat (concat ?x87 ?x32) ?x32) ?x32) ?x32) ?x32)))
 (let ((?x114 (concat (concat (concat (concat (concat ?x89 ?x32) ?x32) ?x32) ?x32) ?x32)))
 (let ((?x116 (concat (concat ?x114 ?x32) ?x6)))
 (let ((?x154 (bvashr ?x116 (_ bv31 64))))
 (let ((?x172 ((_ extract 30 0) ?x154)))
 (let ((?x173 (bvmul (_ bv2147483647 31) ?x172)))
 (let ((?x167 (bvmul (_ bv715827883 64) ?x116)))
 (let ((?x171 ((_ extract 62 32) ?x167)))
 (let ((?x155 ((_ extract 29 0) ?x154)))
 (let ((?x156 (bvmul (_ bv1073741823 30) ?x155)))
 (let ((?x168 ((_ extract 61 32) ?x167)))
 (let ((?x169 (bvadd ?x168 ?x156)))
 (let ((?x170 (concat ?x169 (_ bv0 1))))
 (let ((?x175 (bvadd (bvadd ?x170 ?x171) ?x173)))
 (let ((?x176 (concat ?x175 (_ bv0 1))))
 (let ((?x177 (bvmul (_ bv4294967295 32) ?x176)))
 (let ((?x178 (bvadd ?x6 ?x177)))
 (let (($x179 (= R ?x178)))
 (let ((?x162 ((_ extract 31 0) ?x154)))
 (let ((?x117 (bvmul (_ bv1717986919 64) ?x116)))
 (let ((?x119 ((_ extract 63 32) ?x117)))
 (let ((?x118 ((_ extract 63 63) ?x117)))
 (let ((?x124 (concat (concat (concat (concat (concat ?x118 ?x118) ?x118) ?x118) ?x118) ?x118)))
 (let ((?x129 (concat (concat (concat (concat (concat ?x124 ?x118) ?x118) ?x118) ?x118) ?x118)))
 (let ((?x134 (concat (concat (concat (concat (concat ?x129 ?x118) ?x118) ?x118) ?x118) ?x118)))
 (let ((?x139 (concat (concat (concat (concat (concat ?x134 ?x118) ?x118) ?x118) ?x118) ?x118)))
 (let ((?x144 (concat (concat (concat (concat (concat ?x139 ?x118) ?x118) ?x118) ?x118) ?x118)))
 (let ((?x149 (concat (concat (concat (concat (concat ?x144 ?x118) ?x118) ?x118) ?x118) ?x118)))
 (let ((?x151 (concat (concat ?x149 ?x118) ?x119)))
 (let ((?x152 (bvashr ?x151 (_ bv1 64))))
 (let ((?x160 ((_ extract 31 0) ?x152)))
 (let ((?x161 (bvmul (_ bv4294967295 32) ?x160)))
 (let ((?x164 (bvadd (bvadd ?x6 (bvmul (_ bv4294967295 32) (concat (bvadd ((_ extract 29 0) ?x152) ?x156) (_ bv0 2)))) ?x161)))
 (let ((?x165 (bvadd ?x164 ?x162)))
 (let (($x166 (= R ?x165)))
 (and $x166 $x179)))))))))))))))))))))))))))))))))))))))))))
(check-sat)

